
Gurobi 12.0.2 (win64) logging started Thu Oct 23 20:04:21 2025

Set parameter LogFile to value "C:\Ioana\_uni\honours\slp\algorithm\Main_files\results\fixing paracetamol degradation\Task_001_Sample004_irr_gurobi.log"
Gurobi Optimizer version 12.0.2 build v12.0.2rc0 (win64 - Windows 11.0 (26100.2))

CPU model: Intel(R) Core(TM) Ultra 5 125H, instruction set [SSE2|AVX|AVX2]
Thread count: 14 physical cores, 18 logical processors, using up to 18 threads

Non-default parameters:
TimeLimit  2200

Optimize a model with 47236 rows, 34510 columns and 146720 nonzeros
Model fingerprint: 0xa83be76b
Variable types: 17261 continuous, 17249 integer (17249 binary)
Coefficient statistics:
  Matrix range     [1e-04, 8e+04]
  Objective range  [1e-04, 9e-01]
  Bounds range     [1e+00, 1e+03]
  RHS range        [1e+00, 1e+00]
Presolve removed 30788 rows and 21557 columns
Presolve time: 0.31s
Presolved: 16448 rows, 12953 columns, 54677 nonzeros
Variable types: 6409 continuous, 6544 integer (6544 binary)
Found heuristic solution: objective 9.1513223

Root relaxation: objective 9.015522e-01, 3276 iterations, 0.25 seconds (0.62 work units)

    Nodes    |    Current Node    |     Objective Bounds      |     Work
 Expl Unexpl |  Obj  Depth IntInf | Incumbent    BestBd   Gap | It/Node Time

     0     0    0.90155    0    2    9.15132    0.90155  90.1%     -    0s
H    0     0                       1.7810817    0.90155  49.4%     -    0s
H    0     0                       0.9328405    0.90155  3.35%     -    0s
     0     0    0.90155    0    2    0.93284    0.90155  3.35%     -    0s

Explored 1 nodes (3276 simplex iterations) in 0.72 seconds (1.10 work units)
Thread count was 18 (of 18 available processors)

Solution count 3: 0.932841 1.78108 9.15132 

Optimal solution found (tolerance 1.00e-04)
Best objective 9.328405160858e-01, best bound 9.328405160858e-01, gap 0.0000%

Gurobi 12.0.2 (win64) logging started Thu Oct 23 20:08:06 2025

Set parameter LogFile to value "C:\Ioana\_uni\honours\slp\algorithm\Main_files\results\fixing paracetamol degradation\Task_001_Sample004_irr_gurobi.log"
Gurobi Optimizer version 12.0.2 build v12.0.2rc0 (win64 - Windows 11.0 (26100.2))

CPU model: Intel(R) Core(TM) Ultra 5 125H, instruction set [SSE2|AVX|AVX2]
Thread count: 14 physical cores, 18 logical processors, using up to 18 threads

Non-default parameters:
TimeLimit  2200

Optimize a model with 47236 rows, 34510 columns and 146720 nonzeros
Model fingerprint: 0xa83be76b
Variable types: 17261 continuous, 17249 integer (17249 binary)
Coefficient statistics:
  Matrix range     [1e-04, 8e+04]
  Objective range  [1e-04, 9e-01]
  Bounds range     [1e+00, 1e+03]
  RHS range        [1e+00, 1e+00]
Presolve removed 30788 rows and 21557 columns
Presolve time: 0.33s
Presolved: 16448 rows, 12953 columns, 54677 nonzeros
Variable types: 6409 continuous, 6544 integer (6544 binary)
Found heuristic solution: objective 9.1513223

Root relaxation: objective 9.015522e-01, 3276 iterations, 0.28 seconds (0.62 work units)

    Nodes    |    Current Node    |     Objective Bounds      |     Work
 Expl Unexpl |  Obj  Depth IntInf | Incumbent    BestBd   Gap | It/Node Time

     0     0    0.90155    0    2    9.15132    0.90155  90.1%     -    0s
H    0     0                       1.7810817    0.90155  49.4%     -    0s
H    0     0                       0.9328405    0.90155  3.35%     -    0s
     0     0    0.90155    0    2    0.93284    0.90155  3.35%     -    0s

Explored 1 nodes (3276 simplex iterations) in 0.71 seconds (1.10 work units)
Thread count was 18 (of 18 available processors)

Solution count 3: 0.932841 1.78108 9.15132 

Optimal solution found (tolerance 1.00e-04)
Best objective 9.328405160858e-01, best bound 9.328405160858e-01, gap 0.0000%
